Gurobi 12.0.1:   lim:time = 28800
  mip:bestbound = 1
Set parameter LogToConsole to value 1
  tech:outlev = 1
Set parameter InfUnbdInfo to value 1
Gurobi Optimizer version 12.0.1 build v12.0.1rc0 (win64 - Windows 11.0 (22631.2))

CPU model: Intel(R) Core(TM) i7-10700 CPU @ 2.90GHz, instruction set [SSE2|AVX|AVX2]
Thread count: 8 physical cores, 16 logical processors, using up to 16 threads

Non-default parameters:
TimeLimit  28800
InfUnbdInfo  1

Optimize a model with 306 rows, 705 columns and 3778 nonzeros
Model fingerprint: 0x4b3815ec
Model has 3 quadratic objective terms
Model has 8 quadratic constraints
Model has 117 simple general constraints
  117 AND
Variable types: 17 continuous, 688 integer (0 binary)
Coefficient statistics:
  Matrix range     [1e+00, 1e+05]
  QMatrix range    [4e+00, 2e+01]
  QLMatrix range   [1e+00, 2e+01]
  Objective range  [2e+00, 3e+02]
  QObjective range [7e+00, 2e+01]
  Bounds range     [1e+00, 1e+00]
  RHS range        [1e+00, 1e+05]
  QRHS range       [5e+01, 1e+02]
Presolve added 376 rows and 0 columns
Presolve removed 0 rows and 32 columns
Presolve time: 0.01s
Presolved: 922 rows, 910 columns, 5266 nonzeros
Variable types: 13 continuous, 897 integer (897 binary)

Root relaxation: objective 1.022134e+03, 71 iterations, 0.00 seconds (0.00 work units)

    Nodes    |    Current Node    |     Objective Bounds      |     Work
 Expl Unexpl |  Obj  Depth IntInf | Incumbent    BestBd   Gap | It/Node Time

     0     0 1022.13402    0   18          - 1022.13402      -     -    0s
H    0     0                    1977.9500000 1022.13402  48.3%     -    0s
H    0     0                    1739.2500000 1022.13402  41.2%     -    0s
H    0     0                    1731.2500000 1022.13402  41.0%     -    0s
H    0     0                    1333.4600000 1022.13402  23.3%     -    0s
     0     0 1095.28667    0   13 1333.46000 1095.28667  17.9%     -    0s
     0     0 1095.90653    0   20 1333.46000 1095.90653  17.8%     -    0s
H    0     0                    1331.7800000 1102.24000  17.2%     -    0s
     0     0 1102.24000    0   20 1331.78000 1102.24000  17.2%     -    0s
     0     0 1109.63500    0   24 1331.78000 1109.63500  16.7%     -    0s
     0     0 1109.63500    0   24 1331.78000 1109.63500  16.7%     -    0s
     0     0 1123.37000    0   14 1331.78000 1123.37000  15.6%     -    0s
     0     0 1123.37000    0   14 1331.78000 1123.37000  15.6%     -    0s
H    0     0                    1321.9700000 1123.37000  15.0%     -    0s
     0     0 1123.37000    0   14 1321.97000 1123.37000  15.0%     -    0s
H    0     0                    1214.3000000 1123.37000  7.49%     -    0s
     0     0 1123.37000    0   18 1214.30000 1123.37000  7.49%     -    0s
     0     0 1123.37000    0   19 1214.30000 1123.37000  7.49%     -    0s
     0     0 1123.37000    0   32 1214.30000 1123.37000  7.49%     -    0s
     0     0 1123.37000    0   15 1214.30000 1123.37000  7.49%     -    0s
     0     0 1123.37000    0   14 1214.30000 1123.37000  7.49%     -    0s
     0     0 1123.37000    0   14 1214.30000 1123.37000  7.49%     -    0s
     0     0 1123.37000    0   14 1214.30000 1123.37000  7.49%     -    0s
     0     2 1123.37000    0   14 1214.30000 1123.37000  7.49%     -    0s
H  123    78                    1206.2300000 1125.04670  6.73%   9.2    0s
*  127    78              15    1200.7700000 1125.04670  6.31%   9.1    0s
*  165    79              12    1179.1000000 1129.56496  4.20%   8.6    0s

Cutting planes:
  Gomory: 3
  Cover: 2
  Implied bound: 9
  MIR: 6
  Inf proof: 2
  RLT: 12
  Relax-and-lift: 1

Explored 347 nodes (3173 simplex iterations) in 0.40 seconds (0.23 work units)
Thread count was 16 (of 16 available processors)

Solution count 10: 1179.1 1200.77 1206.23 ... 1977.95

Optimal solution found (tolerance 1.00e-04)
Best objective 1.179100000000e+03, best bound 1.179100000000e+03, gap 0.0000%

AMPL MP initial flat model has 588 variables (0 integer, 571 binary);
Objectives: 1 quadratic; 
Constraints:  306 linear; 8 quadratic;
Logical expressions:  117 and;

AMPL MP final model has 705 variables (0 integer, 688 binary);
Objectives: 1 quadratic; 
Constraints:  306 linear; 8 quadratic;
Logical expressions:  117 and;


-----RESULTS INFO-----
running_time:  0.75
TC.best_bound:  1179.1
TC:  1179.1
MIP Gap (%):  0
=== Vehicle Routes ===
Vehicle 1: 0 → 4
Vehicle 1: 4 → 0
Vehicle 2: 0 → 3
Vehicle 2: 1 → 14
Vehicle 2: 2 → 1
Vehicle 2: 3 → 5
Vehicle 2: 5 → 2
Vehicle 2: 14 → 0
Vehicle 3: 0 → 12
Vehicle 3: 12 → 0

=== Full Vehicle Routes ===
Vehicle 1: 0 → 4 → 0
Vehicle 2: 0 → 3 → 5 → 2 → 1 → 14 → 0
Vehicle 3: 0 → 12 → 0
Arc used by MRT line: y variables:
MRT used: 12 → 13
Customer assigment to PL: u variables:
6 14
7 12
8 13
9 12
10 14
11 13
Node is served by regular vehicle: g variables:
1
2
3
4
5
14
12
Customer assigment to Home delivery: gm variables:
1
2
3
4
5
Customer's demand delivered to PL: l variables:
6
7
8
9
10
11
